db/data/315316451552626029217466060202222986.z3.out
sat
-------------------
188.964493012
